pure_adt/tip2015_weird_nat_add3_comm23.smt2
(set-logic HORN)
(declare-datatypes ((Nat_245 0)) (((zero_34 ) (succ_34 (p_101 Nat_245)))))
(declare-fun diseqNat_245 (Nat_245 Nat_245) Bool)
(declare-fun p_102 (Nat_245 Nat_245) Bool)
(declare-fun iszero_34 (Nat_245) Bool)
(declare-fun issucc_34 (Nat_245) Bool)
(assert (forall ((x_21158 Nat_245))
	(p_102 x_21158 (succ_34 x_21158))))
(assert (iszero_34 zero_34))
(assert (forall ((x_21160 Nat_245))
	(issucc_34 (succ_34 x_21160))))
(assert (forall ((x_21161 Nat_245))
	(diseqNat_245 zero_34 (succ_34 x_21161))))
(assert (forall ((x_21162 Nat_245))
	(diseqNat_245 (succ_34 x_21162) zero_34)))
(assert (forall ((x_21163 Nat_245) (x_21164 Nat_245))
	(=> (diseqNat_245 x_21163 x_21164)
	    (diseqNat_245 (succ_34 x_21163) (succ_34 x_21164)))))
(declare-fun plus_33 (Nat_245 Nat_245 Nat_245) Bool)
(assert (forall ((x_21137 Nat_245) (z_768 Nat_245) (y_760 Nat_245))
	(=> (plus_33 x_21137 z_768 y_760)
	    (plus_33 (succ_34 x_21137) (succ_34 z_768) y_760))))
(assert (forall ((x_21138 Nat_245))
	(plus_33 x_21138 zero_34 x_21138)))
(declare-fun add_144 (Nat_245 Nat_245 Nat_245 Nat_245) Bool)
(assert (forall ((x_21139 Nat_245) (x_21140 Nat_245) (x_21129 Nat_245) (y_761 Nat_245) (z_769 Nat_245))
	(=>	(and (add_144 x_21140 x_21129 y_761 z_769)
			(plus_33 x_21139 (succ_34 zero_34) x_21140))
		(add_144 x_21139 (succ_34 x_21129) y_761 z_769))))
(assert (forall ((x_21142 Nat_245) (x_21143 Nat_245) (x_21130 Nat_245) (z_769 Nat_245))
	(=>	(and (add_144 x_21143 zero_34 x_21130 z_769)
			(plus_33 x_21142 (succ_34 zero_34) x_21143))
		(add_144 x_21142 zero_34 (succ_34 x_21130) z_769))))
(assert (forall ((x_21145 Nat_245))
	(add_144 x_21145 zero_34 zero_34 x_21145)))
(assert (forall ((x_21146 Nat_245) (x_21147 Nat_245) (x_21131 Nat_245) (y_762 Nat_245) (z_770 Nat_245))
	(=>	(and true
			(diseqNat_245 x_21146 x_21147)
			(add_144 x_21146 x_21131 y_762 z_770)
			(add_144 x_21147 x_21131 z_770 y_762))
		false)))
(assert (forall ((x_21148 Nat_245) (x_21149 Nat_245) (x_21150 Nat_245) (x_21151 Nat_245) (x_21132 Nat_245) (y_763 Nat_245) (z_771 Nat_245))
	(=>	(and true
			(diseqNat_245 x_21149 x_21151)
			(plus_33 x_21148 y_763 z_771)
			(plus_33 x_21149 x_21132 x_21148)
			(plus_33 x_21150 x_21132 y_763)
			(plus_33 x_21151 x_21150 z_771))
		false)))
(assert (forall ((x_21152 Nat_245) (x_21153 Nat_245) (x_21133 Nat_245) (y_764 Nat_245))
	(=>	(and true
			(diseqNat_245 x_21152 x_21153)
			(plus_33 x_21152 x_21133 y_764)
			(plus_33 x_21153 y_764 x_21133))
		false)))
(assert (forall ((x_21154 Nat_245) (x_21134 Nat_245))
	(=>	(and true
			(diseqNat_245 x_21154 x_21134)
			(plus_33 x_21154 x_21134 zero_34))
		false)))
(assert (forall ((x_21155 Nat_245) (x_21135 Nat_245))
	(=>	(and true
			(diseqNat_245 x_21155 x_21135)
			(plus_33 x_21155 zero_34 x_21135))
		false)))
(check-sat)
